<instance format="XCSP3" type="CSP">
  <variables>
    <array id="x" note="x[i] is the ith value of the first sequence" size="[23]"> -1 1 </array>
    <array id="y" note="y[i] is the ith value of the second sequence" size="[23]"> -1 1 </array>
    <array id="aux_gb" note="aux_gb[i] is the ith auxiliary variable having been automatically introduced" size="[506]"> -1 1 </array>
  </variables>
  <constraints>
    <sum>
      <list> x[] </list>
      <condition> (eq,1) </condition>
    </sum>
    <sum>
      <list> y[] </list>
      <condition> (eq,1) </condition>
    </sum>
    <group note="quadratic constraints">
      <sum>
        <list> %... </list>
        <condition> (eq,-2) </condition>
      </sum>
      <args> aux_gb[0..45] </args>
      <args> aux_gb[46..91] </args>
      <args> aux_gb[92..137] </args>
      <args> aux_gb[138..183] </args>
      <args> aux_gb[184..229] </args>
      <args> aux_gb[230..275] </args>
      <args> aux_gb[276..321] </args>
      <args> aux_gb[322..367] </args>
      <args> aux_gb[368..413] </args>
      <args> aux_gb[414..459] </args>
      <args> aux_gb[460..505] </args>
    </group>
    <group>
      <intension> eq(mul(%0,%1),%2) </intension>
      <args> x[0] x[1] aux_gb[0] </args>
      <args> x[1] x[2] aux_gb[1] </args>
      <args> x[2] x[3] aux_gb[2] </args>
      <args> x[3] x[4] aux_gb[3] </args>
      <args> x[4] x[5] aux_gb[4] </args>
      <args> x[5] x[6] aux_gb[5] </args>
      <args> x[6] x[7] aux_gb[6] </args>
      <args> x[7] x[8] aux_gb[7] </args>
      <args> x[8] x[9] aux_gb[8] </args>
      <args> x[9] x[10] aux_gb[9] </args>
      <args> x[10] x[11] aux_gb[10] </args>
      <args> x[11] x[12] aux_gb[11] </args>
      <args> x[12] x[13] aux_gb[12] </args>
      <args> x[13] x[14] aux_gb[13] </args>
      <args> x[14] x[15] aux_gb[14] </args>
      <args> x[15] x[16] aux_gb[15] </args>
      <args> x[16] x[17] aux_gb[16] </args>
      <args> x[17] x[18] aux_gb[17] </args>
      <args> x[18] x[19] aux_gb[18] </args>
      <args> x[19] x[20] aux_gb[19] </args>
      <args> x[20] x[21] aux_gb[20] </args>
      <args> x[21] x[22] aux_gb[21] </args>
      <args> x[22] x[0] aux_gb[22] </args>
      <args> y[0] y[1] aux_gb[23] </args>
      <args> y[1] y[2] aux_gb[24] </args>
      <args> y[2] y[3] aux_gb[25] </args>
      <args> y[3] y[4] aux_gb[26] </args>
      <args> y[4] y[5] aux_gb[27] </args>
      <args> y[5] y[6] aux_gb[28] </args>
      <args> y[6] y[7] aux_gb[29] </args>
      <args> y[7] y[8] aux_gb[30] </args>
      <args> y[8] y[9] aux_gb[31] </args>
      <args> y[9] y[10] aux_gb[32] </args>
      <args> y[10] y[11] aux_gb[33] </args>
      <args> y[11] y[12] aux_gb[34] </args>
      <args> y[12] y[13] aux_gb[35] </args>
      <args> y[13] y[14] aux_gb[36] </args>
      <args> y[14] y[15] aux_gb[37] </args>
      <args> y[15] y[16] aux_gb[38] </args>
      <args> y[16] y[17] aux_gb[39] </args>
      <args> y[17] y[18] aux_gb[40] </args>
      <args> y[18] y[19] aux_gb[41] </args>
      <args> y[19] y[20] aux_gb[42] </args>
      <args> y[20] y[21] aux_gb[43] </args>
      <args> y[21] y[22] aux_gb[44] </args>
      <args> y[22] y[0] aux_gb[45] </args>
      <args> x[0] x[2] aux_gb[46] </args>
      <args> x[1] x[3] aux_gb[47] </args>
      <args> x[2] x[4] aux_gb[48] </args>
      <args> x[3] x[5] aux_gb[49] </args>
      <args> x[4] x[6] aux_gb[50] </args>
      <args> x[5] x[7] aux_gb[51] </args>
      <args> x[6] x[8] aux_gb[52] </args>
      <args> x[7] x[9] aux_gb[53] </args>
      <args> x[8] x[10] aux_gb[54] </args>
      <args> x[9] x[11] aux_gb[55] </args>
      <args> x[10] x[12] aux_gb[56] </args>
      <args> x[11] x[13] aux_gb[57] </args>
      <args> x[12] x[14] aux_gb[58] </args>
      <args> x[13] x[15] aux_gb[59] </args>
      <args> x[14] x[16] aux_gb[60] </args>
      <args> x[15] x[17] aux_gb[61] </args>
      <args> x[16] x[18] aux_gb[62] </args>
      <args> x[17] x[19] aux_gb[63] </args>
      <args> x[18] x[20] aux_gb[64] </args>
      <args> x[19] x[21] aux_gb[65] </args>
      <args> x[20] x[22] aux_gb[66] </args>
      <args> x[21] x[0] aux_gb[67] </args>
      <args> x[22] x[1] aux_gb[68] </args>
      <args> y[0] y[2] aux_gb[69] </args>
      <args> y[1] y[3] aux_gb[70] </args>
      <args> y[2] y[4] aux_gb[71] </args>
      <args> y[3] y[5] aux_gb[72] </args>
      <args> y[4] y[6] aux_gb[73] </args>
      <args> y[5] y[7] aux_gb[74] </args>
      <args> y[6] y[8] aux_gb[75] </args>
      <args> y[7] y[9] aux_gb[76] </args>
      <args> y[8] y[10] aux_gb[77] </args>
      <args> y[9] y[11] aux_gb[78] </args>
      <args> y[10] y[12] aux_gb[79] </args>
      <args> y[11] y[13] aux_gb[80] </args>
      <args> y[12] y[14] aux_gb[81] </args>
      <args> y[13] y[15] aux_gb[82] </args>
      <args> y[14] y[16] aux_gb[83] </args>
      <args> y[15] y[17] aux_gb[84] </args>
      <args> y[16] y[18] aux_gb[85] </args>
      <args> y[17] y[19] aux_gb[86] </args>
      <args> y[18] y[20] aux_gb[87] </args>
      <args> y[19] y[21] aux_gb[88] </args>
      <args> y[20] y[22] aux_gb[89] </args>
      <args> y[21] y[0] aux_gb[90] </args>
      <args> y[22] y[1] aux_gb[91] </args>
      <args> x[0] x[3] aux_gb[92] </args>
      <args> x[1] x[4] aux_gb[93] </args>
      <args> x[2] x[5] aux_gb[94] </args>
      <args> x[3] x[6] aux_gb[95] </args>
      <args> x[4] x[7] aux_gb[96] </args>
      <args> x[5] x[8] aux_gb[97] </args>
      <args> x[6] x[9] aux_gb[98] </args>
      <args> x[7] x[10] aux_gb[99] </args>
      <args> x[8] x[11] aux_gb[100] </args>
      <args> x[9] x[12] aux_gb[101] </args>
      <args> x[10] x[13] aux_gb[102] </args>
      <args> x[11] x[14] aux_gb[103] </args>
      <args> x[12] x[15] aux_gb[104] </args>
      <args> x[13] x[16] aux_gb[105] </args>
      <args> x[14] x[17] aux_gb[106] </args>
      <args> x[15] x[18] aux_gb[107] </args>
      <args> x[16] x[19] aux_gb[108] </args>
      <args> x[17] x[20] aux_gb[109] </args>
      <args> x[18] x[21] aux_gb[110] </args>
      <args> x[19] x[22] aux_gb[111] </args>
      <args> x[20] x[0] aux_gb[112] </args>
      <args> x[21] x[1] aux_gb[113] </args>
      <args> x[22] x[2] aux_gb[114] </args>
      <args> y[0] y[3] aux_gb[115] </args>
      <args> y[1] y[4] aux_gb[116] </args>
      <args> y[2] y[5] aux_gb[117] </args>
      <args> y[3] y[6] aux_gb[118] </args>
      <args> y[4] y[7] aux_gb[119] </args>
      <args> y[5] y[8] aux_gb[120] </args>
      <args> y[6] y[9] aux_gb[121] </args>
      <args> y[7] y[10] aux_gb[122] </args>
      <args> y[8] y[11] aux_gb[123] </args>
      <args> y[9] y[12] aux_gb[124] </args>
      <args> y[10] y[13] aux_gb[125] </args>
      <args> y[11] y[14] aux_gb[126] </args>
      <args> y[12] y[15] aux_gb[127] </args>
      <args> y[13] y[16] aux_gb[128] </args>
      <args> y[14] y[17] aux_gb[129] </args>
      <args> y[15] y[18] aux_gb[130] </args>
      <args> y[16] y[19] aux_gb[131] </args>
      <args> y[17] y[20] aux_gb[132] </args>
      <args> y[18] y[21] aux_gb[133] </args>
      <args> y[19] y[22] aux_gb[134] </args>
      <args> y[20] y[0] aux_gb[135] </args>
      <args> y[21] y[1] aux_gb[136] </args>
      <args> y[22] y[2] aux_gb[137] </args>
      <args> x[0] x[4] aux_gb[138] </args>
      <args> x[1] x[5] aux_gb[139] </args>
      <args> x[2] x[6] aux_gb[140] </args>
      <args> x[3] x[7] aux_gb[141] </args>
      <args> x[4] x[8] aux_gb[142] </args>
      <args> x[5] x[9] aux_gb[143] </args>
      <args> x[6] x[10] aux_gb[144] </args>
      <args> x[7] x[11] aux_gb[145] </args>
      <args> x[8] x[12] aux_gb[146] </args>
      <args> x[9] x[13] aux_gb[147] </args>
      <args> x[10] x[14] aux_gb[148] </args>
      <args> x[11] x[15] aux_gb[149] </args>
      <args> x[12] x[16] aux_gb[150] </args>
      <args> x[13] x[17] aux_gb[151] </args>
      <args> x[14] x[18] aux_gb[152] </args>
      <args> x[15] x[19] aux_gb[153] </args>
      <args> x[16] x[20] aux_gb[154] </args>
      <args> x[17] x[21] aux_gb[155] </args>
      <args> x[18] x[22] aux_gb[156] </args>
      <args> x[19] x[0] aux_gb[157] </args>
      <args> x[20] x[1] aux_gb[158] </args>
      <args> x[21] x[2] aux_gb[159] </args>
      <args> x[22] x[3] aux_gb[160] </args>
      <args> y[0] y[4] aux_gb[161] </args>
      <args> y[1] y[5] aux_gb[162] </args>
      <args> y[2] y[6] aux_gb[163] </args>
      <args> y[3] y[7] aux_gb[164] </args>
      <args> y[4] y[8] aux_gb[165] </args>
      <args> y[5] y[9] aux_gb[166] </args>
      <args> y[6] y[10] aux_gb[167] </args>
      <args> y[7] y[11] aux_gb[168] </args>
      <args> y[8] y[12] aux_gb[169] </args>
      <args> y[9] y[13] aux_gb[170] </args>
      <args> y[10] y[14] aux_gb[171] </args>
      <args> y[11] y[15] aux_gb[172] </args>
      <args> y[12] y[16] aux_gb[173] </args>
      <args> y[13] y[17] aux_gb[174] </args>
      <args> y[14] y[18] aux_gb[175] </args>
      <args> y[15] y[19] aux_gb[176] </args>
      <args> y[16] y[20] aux_gb[177] </args>
      <args> y[17] y[21] aux_gb[178] </args>
      <args> y[18] y[22] aux_gb[179] </args>
      <args> y[19] y[0] aux_gb[180] </args>
      <args> y[20] y[1] aux_gb[181] </args>
      <args> y[21] y[2] aux_gb[182] </args>
      <args> y[22] y[3] aux_gb[183] </args>
      <args> x[0] x[5] aux_gb[184] </args>
      <args> x[1] x[6] aux_gb[185] </args>
      <args> x[2] x[7] aux_gb[186] </args>
      <args> x[3] x[8] aux_gb[187] </args>
      <args> x[4] x[9] aux_gb[188] </args>
      <args> x[5] x[10] aux_gb[189] </args>
      <args> x[6] x[11] aux_gb[190] </args>
      <args> x[7] x[12] aux_gb[191] </args>
      <args> x[8] x[13] aux_gb[192] </args>
      <args> x[9] x[14] aux_gb[193] </args>
      <args> x[10] x[15] aux_gb[194] </args>
      <args> x[11] x[16] aux_gb[195] </args>
      <args> x[12] x[17] aux_gb[196] </args>
      <args> x[13] x[18] aux_gb[197] </args>
      <args> x[14] x[19] aux_gb[198] </args>
      <args> x[15] x[20] aux_gb[199] </args>
      <args> x[16] x[21] aux_gb[200] </args>
      <args> x[17] x[22] aux_gb[201] </args>
      <args> x[18] x[0] aux_gb[202] </args>
      <args> x[19] x[1] aux_gb[203] </args>
      <args> x[20] x[2] aux_gb[204] </args>
      <args> x[21] x[3] aux_gb[205] </args>
      <args> x[22] x[4] aux_gb[206] </args>
      <args> y[0] y[5] aux_gb[207] </args>
      <args> y[1] y[6] aux_gb[208] </args>
      <args> y[2] y[7] aux_gb[209] </args>
      <args> y[3] y[8] aux_gb[210] </args>
      <args> y[4] y[9] aux_gb[211] </args>
      <args> y[5] y[10] aux_gb[212] </args>
      <args> y[6] y[11] aux_gb[213] </args>
      <args> y[7] y[12] aux_gb[214] </args>
      <args> y[8] y[13] aux_gb[215] </args>
      <args> y[9] y[14] aux_gb[216] </args>
      <args> y[10] y[15] aux_gb[217] </args>
      <args> y[11] y[16] aux_gb[218] </args>
      <args> y[12] y[17] aux_gb[219] </args>
      <args> y[13] y[18] aux_gb[220] </args>
      <args> y[14] y[19] aux_gb[221] </args>
      <args> y[15] y[20] aux_gb[222] </args>
      <args> y[16] y[21] aux_gb[223] </args>
      <args> y[17] y[22] aux_gb[224] </args>
      <args> y[18] y[0] aux_gb[225] </args>
      <args> y[19] y[1] aux_gb[226] </args>
      <args> y[20] y[2] aux_gb[227] </args>
      <args> y[21] y[3] aux_gb[228] </args>
      <args> y[22] y[4] aux_gb[229] </args>
      <args> x[0] x[6] aux_gb[230] </args>
      <args> x[1] x[7] aux_gb[231] </args>
      <args> x[2] x[8] aux_gb[232] </args>
      <args> x[3] x[9] aux_gb[233] </args>
      <args> x[4] x[10] aux_gb[234] </args>
      <args> x[5] x[11] aux_gb[235] </args>
      <args> x[6] x[12] aux_gb[236] </args>
      <args> x[7] x[13] aux_gb[237] </args>
      <args> x[8] x[14] aux_gb[238] </args>
      <args> x[9] x[15] aux_gb[239] </args>
      <args> x[10] x[16] aux_gb[240] </args>
      <args> x[11] x[17] aux_gb[241] </args>
      <args> x[12] x[18] aux_gb[242] </args>
      <args> x[13] x[19] aux_gb[243] </args>
      <args> x[14] x[20] aux_gb[244] </args>
      <args> x[15] x[21] aux_gb[245] </args>
      <args> x[16] x[22] aux_gb[246] </args>
      <args> x[17] x[0] aux_gb[247] </args>
      <args> x[18] x[1] aux_gb[248] </args>
      <args> x[19] x[2] aux_gb[249] </args>
      <args> x[20] x[3] aux_gb[250] </args>
      <args> x[21] x[4] aux_gb[251] </args>
      <args> x[22] x[5] aux_gb[252] </args>
      <args> y[0] y[6] aux_gb[253] </args>
      <args> y[1] y[7] aux_gb[254] </args>
      <args> y[2] y[8] aux_gb[255] </args>
      <args> y[3] y[9] aux_gb[256] </args>
      <args> y[4] y[10] aux_gb[257] </args>
      <args> y[5] y[11] aux_gb[258] </args>
      <args> y[6] y[12] aux_gb[259] </args>
      <args> y[7] y[13] aux_gb[260] </args>
      <args> y[8] y[14] aux_gb[261] </args>
      <args> y[9] y[15] aux_gb[262] </args>
      <args> y[10] y[16] aux_gb[263] </args>
      <args> y[11] y[17] aux_gb[264] </args>
      <args> y[12] y[18] aux_gb[265] </args>
      <args> y[13] y[19] aux_gb[266] </args>
      <args> y[14] y[20] aux_gb[267] </args>
      <args> y[15] y[21] aux_gb[268] </args>
      <args> y[16] y[22] aux_gb[269] </args>
      <args> y[17] y[0] aux_gb[270] </args>
      <args> y[18] y[1] aux_gb[271] </args>
      <args> y[19] y[2] aux_gb[272] </args>
      <args> y[20] y[3] aux_gb[273] </args>
      <args> y[21] y[4] aux_gb[274] </args>
      <args> y[22] y[5] aux_gb[275] </args>
      <args> x[0] x[7] aux_gb[276] </args>
      <args> x[1] x[8] aux_gb[277] </args>
      <args> x[2] x[9] aux_gb[278] </args>
      <args> x[3] x[10] aux_gb[279] </args>
      <args> x[4] x[11] aux_gb[280] </args>
      <args> x[5] x[12] aux_gb[281] </args>
      <args> x[6] x[13] aux_gb[282] </args>
      <args> x[7] x[14] aux_gb[283] </args>
      <args> x[8] x[15] aux_gb[284] </args>
      <args> x[9] x[16] aux_gb[285] </args>
      <args> x[10] x[17] aux_gb[286] </args>
      <args> x[11] x[18] aux_gb[287] </args>
      <args> x[12] x[19] aux_gb[288] </args>
      <args> x[13] x[20] aux_gb[289] </args>
      <args> x[14] x[21] aux_gb[290] </args>
      <args> x[15] x[22] aux_gb[291] </args>
      <args> x[16] x[0] aux_gb[292] </args>
      <args> x[17] x[1] aux_gb[293] </args>
      <args> x[18] x[2] aux_gb[294] </args>
      <args> x[19] x[3] aux_gb[295] </args>
      <args> x[20] x[4] aux_gb[296] </args>
      <args> x[21] x[5] aux_gb[297] </args>
      <args> x[22] x[6] aux_gb[298] </args>
      <args> y[0] y[7] aux_gb[299] </args>
      <args> y[1] y[8] aux_gb[300] </args>
      <args> y[2] y[9] aux_gb[301] </args>
      <args> y[3] y[10] aux_gb[302] </args>
      <args> y[4] y[11] aux_gb[303] </args>
      <args> y[5] y[12] aux_gb[304] </args>
      <args> y[6] y[13] aux_gb[305] </args>
      <args> y[7] y[14] aux_gb[306] </args>
      <args> y[8] y[15] aux_gb[307] </args>
      <args> y[9] y[16] aux_gb[308] </args>
      <args> y[10] y[17] aux_gb[309] </args>
      <args> y[11] y[18] aux_gb[310] </args>
      <args> y[12] y[19] aux_gb[311] </args>
      <args> y[13] y[20] aux_gb[312] </args>
      <args> y[14] y[21] aux_gb[313] </args>
      <args> y[15] y[22] aux_gb[314] </args>
      <args> y[16] y[0] aux_gb[315] </args>
      <args> y[17] y[1] aux_gb[316] </args>
      <args> y[18] y[2] aux_gb[317] </args>
      <args> y[19] y[3] aux_gb[318] </args>
      <args> y[20] y[4] aux_gb[319] </args>
      <args> y[21] y[5] aux_gb[320] </args>
      <args> y[22] y[6] aux_gb[321] </args>
      <args> x[0] x[8] aux_gb[322] </args>
      <args> x[1] x[9] aux_gb[323] </args>
      <args> x[2] x[10] aux_gb[324] </args>
      <args> x[3] x[11] aux_gb[325] </args>
      <args> x[4] x[12] aux_gb[326] </args>
      <args> x[5] x[13] aux_gb[327] </args>
      <args> x[6] x[14] aux_gb[328] </args>
      <args> x[7] x[15] aux_gb[329] </args>
      <args> x[8] x[16] aux_gb[330] </args>
      <args> x[9] x[17] aux_gb[331] </args>
      <args> x[10] x[18] aux_gb[332] </args>
      <args> x[11] x[19] aux_gb[333] </args>
      <args> x[12] x[20] aux_gb[334] </args>
      <args> x[13] x[21] aux_gb[335] </args>
      <args> x[14] x[22] aux_gb[336] </args>
      <args> x[15] x[0] aux_gb[337] </args>
      <args> x[16] x[1] aux_gb[338] </args>
      <args> x[17] x[2] aux_gb[339] </args>
      <args> x[18] x[3] aux_gb[340] </args>
      <args> x[19] x[4] aux_gb[341] </args>
      <args> x[20] x[5] aux_gb[342] </args>
      <args> x[21] x[6] aux_gb[343] </args>
      <args> x[22] x[7] aux_gb[344] </args>
      <args> y[0] y[8] aux_gb[345] </args>
      <args> y[1] y[9] aux_gb[346] </args>
      <args> y[2] y[10] aux_gb[347] </args>
      <args> y[3] y[11] aux_gb[348] </args>
      <args> y[4] y[12] aux_gb[349] </args>
      <args> y[5] y[13] aux_gb[350] </args>
      <args> y[6] y[14] aux_gb[351] </args>
      <args> y[7] y[15] aux_gb[352] </args>
      <args> y[8] y[16] aux_gb[353] </args>
      <args> y[9] y[17] aux_gb[354] </args>
      <args> y[10] y[18] aux_gb[355] </args>
      <args> y[11] y[19] aux_gb[356] </args>
      <args> y[12] y[20] aux_gb[357] </args>
      <args> y[13] y[21] aux_gb[358] </args>
      <args> y[14] y[22] aux_gb[359] </args>
      <args> y[15] y[0] aux_gb[360] </args>
      <args> y[16] y[1] aux_gb[361] </args>
      <args> y[17] y[2] aux_gb[362] </args>
      <args> y[18] y[3] aux_gb[363] </args>
      <args> y[19] y[4] aux_gb[364] </args>
      <args> y[20] y[5] aux_gb[365] </args>
      <args> y[21] y[6] aux_gb[366] </args>
      <args> y[22] y[7] aux_gb[367] </args>
      <args> x[0] x[9] aux_gb[368] </args>
      <args> x[1] x[10] aux_gb[369] </args>
      <args> x[2] x[11] aux_gb[370] </args>
      <args> x[3] x[12] aux_gb[371] </args>
      <args> x[4] x[13] aux_gb[372] </args>
      <args> x[5] x[14] aux_gb[373] </args>
      <args> x[6] x[15] aux_gb[374] </args>
      <args> x[7] x[16] aux_gb[375] </args>
      <args> x[8] x[17] aux_gb[376] </args>
      <args> x[9] x[18] aux_gb[377] </args>
      <args> x[10] x[19] aux_gb[378] </args>
      <args> x[11] x[20] aux_gb[379] </args>
      <args> x[12] x[21] aux_gb[380] </args>
      <args> x[13] x[22] aux_gb[381] </args>
      <args> x[14] x[0] aux_gb[382] </args>
      <args> x[15] x[1] aux_gb[383] </args>
      <args> x[16] x[2] aux_gb[384] </args>
      <args> x[17] x[3] aux_gb[385] </args>
      <args> x[18] x[4] aux_gb[386] </args>
      <args> x[19] x[5] aux_gb[387] </args>
      <args> x[20] x[6] aux_gb[388] </args>
      <args> x[21] x[7] aux_gb[389] </args>
      <args> x[22] x[8] aux_gb[390] </args>
      <args> y[0] y[9] aux_gb[391] </args>
      <args> y[1] y[10] aux_gb[392] </args>
      <args> y[2] y[11] aux_gb[393] </args>
      <args> y[3] y[12] aux_gb[394] </args>
      <args> y[4] y[13] aux_gb[395] </args>
      <args> y[5] y[14] aux_gb[396] </args>
      <args> y[6] y[15] aux_gb[397] </args>
      <args> y[7] y[16] aux_gb[398] </args>
      <args> y[8] y[17] aux_gb[399] </args>
      <args> y[9] y[18] aux_gb[400] </args>
      <args> y[10] y[19] aux_gb[401] </args>
      <args> y[11] y[20] aux_gb[402] </args>
      <args> y[12] y[21] aux_gb[403] </args>
      <args> y[13] y[22] aux_gb[404] </args>
      <args> y[14] y[0] aux_gb[405] </args>
      <args> y[15] y[1] aux_gb[406] </args>
      <args> y[16] y[2] aux_gb[407] </args>
      <args> y[17] y[3] aux_gb[408] </args>
      <args> y[18] y[4] aux_gb[409] </args>
      <args> y[19] y[5] aux_gb[410] </args>
      <args> y[20] y[6] aux_gb[411] </args>
      <args> y[21] y[7] aux_gb[412] </args>
      <args> y[22] y[8] aux_gb[413] </args>
      <args> x[0] x[10] aux_gb[414] </args>
      <args> x[1] x[11] aux_gb[415] </args>
      <args> x[2] x[12] aux_gb[416] </args>
      <args> x[3] x[13] aux_gb[417] </args>
      <args> x[4] x[14] aux_gb[418] </args>
      <args> x[5] x[15] aux_gb[419] </args>
      <args> x[6] x[16] aux_gb[420] </args>
      <args> x[7] x[17] aux_gb[421] </args>
      <args> x[8] x[18] aux_gb[422] </args>
      <args> x[9] x[19] aux_gb[423] </args>
      <args> x[10] x[20] aux_gb[424] </args>
      <args> x[11] x[21] aux_gb[425] </args>
      <args> x[12] x[22] aux_gb[426] </args>
      <args> x[13] x[0] aux_gb[427] </args>
      <args> x[14] x[1] aux_gb[428] </args>
      <args> x[15] x[2] aux_gb[429] </args>
      <args> x[16] x[3] aux_gb[430] </args>
      <args> x[17] x[4] aux_gb[431] </args>
      <args> x[18] x[5] aux_gb[432] </args>
      <args> x[19] x[6] aux_gb[433] </args>
      <args> x[20] x[7] aux_gb[434] </args>
      <args> x[21] x[8] aux_gb[435] </args>
      <args> x[22] x[9] aux_gb[436] </args>
      <args> y[0] y[10] aux_gb[437] </args>
      <args> y[1] y[11] aux_gb[438] </args>
      <args> y[2] y[12] aux_gb[439] </args>
      <args> y[3] y[13] aux_gb[440] </args>
      <args> y[4] y[14] aux_gb[441] </args>
      <args> y[5] y[15] aux_gb[442] </args>
      <args> y[6] y[16] aux_gb[443] </args>
      <args> y[7] y[17] aux_gb[444] </args>
      <args> y[8] y[18] aux_gb[445] </args>
      <args> y[9] y[19] aux_gb[446] </args>
      <args> y[10] y[20] aux_gb[447] </args>
      <args> y[11] y[21] aux_gb[448] </args>
      <args> y[12] y[22] aux_gb[449] </args>
      <args> y[13] y[0] aux_gb[450] </args>
      <args> y[14] y[1] aux_gb[451] </args>
      <args> y[15] y[2] aux_gb[452] </args>
      <args> y[16] y[3] aux_gb[453] </args>
      <args> y[17] y[4] aux_gb[454] </args>
      <args> y[18] y[5] aux_gb[455] </args>
      <args> y[19] y[6] aux_gb[456] </args>
      <args> y[20] y[7] aux_gb[457] </args>
      <args> y[21] y[8] aux_gb[458] </args>
      <args> y[22] y[9] aux_gb[459] </args>
      <args> x[0] x[11] aux_gb[460] </args>
      <args> x[1] x[12] aux_gb[461] </args>
      <args> x[2] x[13] aux_gb[462] </args>
      <args> x[3] x[14] aux_gb[463] </args>
      <args> x[4] x[15] aux_gb[464] </args>
      <args> x[5] x[16] aux_gb[465] </args>
      <args> x[6] x[17] aux_gb[466] </args>
      <args> x[7] x[18] aux_gb[467] </args>
      <args> x[8] x[19] aux_gb[468] </args>
      <args> x[9] x[20] aux_gb[469] </args>
      <args> x[10] x[21] aux_gb[470] </args>
      <args> x[11] x[22] aux_gb[471] </args>
      <args> x[12] x[0] aux_gb[472] </args>
      <args> x[13] x[1] aux_gb[473] </args>
      <args> x[14] x[2] aux_gb[474] </args>
      <args> x[15] x[3] aux_gb[475] </args>
      <args> x[16] x[4] aux_gb[476] </args>
      <args> x[17] x[5] aux_gb[477] </args>
      <args> x[18] x[6] aux_gb[478] </args>
      <args> x[19] x[7] aux_gb[479] </args>
      <args> x[20] x[8] aux_gb[480] </args>
      <args> x[21] x[9] aux_gb[481] </args>
      <args> x[22] x[10] aux_gb[482] </args>
      <args> y[0] y[11] aux_gb[483] </args>
      <args> y[1] y[12] aux_gb[484] </args>
      <args> y[2] y[13] aux_gb[485] </args>
      <args> y[3] y[14] aux_gb[486] </args>
      <args> y[4] y[15] aux_gb[487] </args>
      <args> y[5] y[16] aux_gb[488] </args>
      <args> y[6] y[17] aux_gb[489] </args>
      <args> y[7] y[18] aux_gb[490] </args>
      <args> y[8] y[19] aux_gb[491] </args>
      <args> y[9] y[20] aux_gb[492] </args>
      <args> y[10] y[21] aux_gb[493] </args>
      <args> y[11] y[22] aux_gb[494] </args>
      <args> y[12] y[0] aux_gb[495] </args>
      <args> y[13] y[1] aux_gb[496] </args>
      <args> y[14] y[2] aux_gb[497] </args>
      <args> y[15] y[3] aux_gb[498] </args>
      <args> y[16] y[4] aux_gb[499] </args>
      <args> y[17] y[5] aux_gb[500] </args>
      <args> y[18] y[6] aux_gb[501] </args>
      <args> y[19] y[7] aux_gb[502] </args>
      <args> y[20] y[8] aux_gb[503] </args>
      <args> y[21] y[9] aux_gb[504] </args>
      <args> y[22] y[10] aux_gb[505] </args>
    </group>
  </constraints>
</instance>
